language Essence 1.3

letting blksize_delta be function(1 --> 2, 2 --> 2, 3 --> 2, 4 --> 2, 5 --> 2)
letting maxcars be function(1 --> 10, 2 --> 10, 3 --> 7, 4 --> 10, 5 --> 8)
letting n_cars be 144
letting n_classes be 2
letting n_options be 5
letting quantity be function(1 --> 77, 2 --> 67)
letting usage be relation((1, 1), (1, 2), (1, 3), (1, 4), (2, 5))
$ Visualisation for usage
$ 1 1
$ 1 2
$ 1 3
$ 1 4
$ 2 5

